































































57 110 
64 97 
26 53 
0 75 
78 112 
81 76 
89 86 
14 27 80 
106 32 
105 1 
71 88 
84 45 83 
58 101 4 
60 29 
2 16 
34 13 72 
24 52 
6 100 
103 15 73 
18 17 46 
113 108 
3 56 
55 43 
37 33 
41 82 28 
31 114 
96 50 19 
20 7 
10 99 
70 104 65 
61 62 
66 5 
94 54 
93 69 107 
98 47 
25 21 
111 23 51 
35 48 
40 44 
39 68 
95 74 11 
85 12 
22 36 
30 87 
59 102 
91 8 
9 49 
67 92 
109 42 
77 79 
90 63 38 
